NAME        
OBJSENSE
  MAX
ROWS
 N  Obj     
 L  r0      
COLUMNS
    MARK0000  'MARKER'                 'INTORG'
    c0        Obj       21168.23
    c0        r0        21168.23
    c1        Obj       45983.16
    c1        r0        45983.16
    c2        Obj       13309.6
    c2        r0        13309.6
    c3        Obj       28955.64
    c3        r0        28955.64
    c4        Obj       22824.48
    c4        r0        22824.48
    c5        Obj       49620.16
    c5        r0        49620.16
    c6        Obj       44694.46
    c6        r0        44694.46
    c7        Obj       54058.05
    c7        r0        54058.05
    c8        Obj       46796.47
    c8        r0        46796.47
    c9        Obj       39890.88
    c9        r0        39890.88
    c10       Obj       2618.76
    c10       r0        2618.76
    c11       Obj       32986.52
    c11       r0        32986.52
    c12       Obj       28733.64
    c12       r0        28733.64
    c13       Obj       30690.9
    c13       r0        30690.9
    c14       Obj       23678.55
    c14       r0        23678.55
    c15       Obj       50723.92
    c15       r0        50723.92
    c16       Obj       73426.5
    c16       r0        73426.5
    MARK0001  'MARKER'                 'INTEND'
RHS
    RHS_V     r0        10000
BOUNDS
 UI BOUND     c0        10000
 UI BOUND     c1        10000
 UI BOUND     c2        10000
 UI BOUND     c3        10000
 UI BOUND     c4        10000
 UI BOUND     c5        10000
 UI BOUND     c6        10000
 UI BOUND     c7        10000
 UI BOUND     c8        10000
 UI BOUND     c9        10000
 UI BOUND     c10       10000
 UI BOUND     c11       10000
 UI BOUND     c12       10000
 UI BOUND     c13       10000
 UI BOUND     c14       10000
 UI BOUND     c15       10000
 UI BOUND     c16       10000
ENDATA
